n_res = 4;
rc = [ 32, 26, 31, 31 ];
n_tasks = 30;
d = [ 1, 6, 9, 6, 2, 5, 7, 2, 7, 4, 5, 3, 7, 8, 7, 5, 1, 5, 6, 9, 6, 2, 9, 6, 7, 9, 8, 7, 4, 9 ];
rr = [| 32, 32, 32, 32, 32, 32, 32, 32, 32, 32, 32, 32, 32, 32, 32, 32, 32, 32, 32, 32, 32, 32, 32, 32, 32, 32, 32, 32, 32, 32
      | 26, 26, 26, 26, 26, 26, 26, 26, 26, 26, 26, 26, 26, 26, 26, 26, 26, 26, 26, 26, 26, 26, 26, 26, 26, 26, 26, 26, 26, 26
      | 31, 31, 31, 31, 31, 31, 31, 31, 31, 31, 31, 31, 31, 31, 31, 31, 31, 31, 31, 31, 31, 31, 31, 31, 31, 31, 31, 31, 31, 31
      | 31, 31, 31, 31, 31, 31, 31, 31, 31, 31, 31, 31, 31, 31, 31, 31, 31, 31, 31, 31, 31, 31, 31, 31, 31, 31, 31, 31, 31, 31|];
suc = [ { 7, 13, 14 },
       { 4, 5, 10 },
       { 6, 10, 12 },
       { 8, 17, 25 },
       { 6, 7, 9 },
       { 29, 30 },
       { 15, 18, 19 },
       { 18, 19, 30 },
       { 15, 16, 21 },
       { 11, 13, 21 },
       { 14, 15, 22 },
       { 14, 18, 24 },
       { 16, 20, 24 },
       { 16, 19 },
       { 26, 28 },
       { 17, 23, 25 },
       { 26 },
       { 20, 21, 23 },
       { 20, 29 },
       { 28 },
       { 27 },
       { 23, 24, 25 },
       { 27 },
       { 28 },
       { 26, 30 },
       { 27 },
       { 29 },
       {  },
       {  },
       {  } ];
